SPARKNaCl/why3-z3/sparknacl-secretbox.adb_118_27_range_check_1.smt2
;; produced by z3_gnatprove.drv ;;
(set-info :smt-lib-version 2.5)
(set-info :source |VC generated by SPARK 2014|)
(set-info :category industrial)
(set-info :status unknown)
;;; generated by SMT-LIB2 driver
;;; SMT-LIB2 driver: bit-vectors, common part
;;; SMT-LIB2: integer arithmetic
(declare-sort tinteger_32B 0)

;; "tinteger_32B'int"
(declare-fun tinteger_32Bqtint (tinteger_32B) Int)

;; "tinteger_32B'axiom"
(assert
  (forall ((i tinteger_32B))
    (and
      (<= (- 2147483648) (tinteger_32Bqtint i))
      (<= (tinteger_32Bqtint i) 2147483647))))

;; "in_range"
(define-fun in_range ((x Int)) Bool
  (and (<= (- 2147483648) x) (<= x 2147483647)))

;; "to_rep"
(define-fun to_rep ((x tinteger_32B)) Int
  (tinteger_32Bqtint x))

;; "of_rep"
(declare-fun of_rep (Int) tinteger_32B)

;; "inversion_axiom"
(assert
  (forall ((x tinteger_32B))
    (! (= (of_rep (to_rep x)) x) :pattern ((to_rep x)) )))

;; "range_axiom"
(assert
  (forall ((x tinteger_32B))
    (! (in_range (to_rep x)) :pattern ((to_rep x)) )))

;; "coerce_axiom"
(assert
  (forall ((x Int))
    (! (=> (in_range x) (= (to_rep (of_rep x)) x)) :pattern ((to_rep
                                                               (of_rep x))) )))

;; "in_range"
(define-fun in_range1 ((x Int)) Bool
  (and (<= 0 x) (<= x 2147483647)))

(declare-sort byte 0)

;; "to_rep"
(declare-fun to_rep1 (byte) (_ BitVec 8))

;; "of_rep"
(declare-fun of_rep1 ((_ BitVec 8)) byte)

;; "inversion_axiom"
(assert
  (forall ((x byte)) (! (= (of_rep1 (to_rep1 x)) x) :pattern ((to_rep1 x)) )))

;; "range_axiom"
(assert true)

;; "coerce_axiom"
(assert
  (forall ((x (_ BitVec 8)))
    (! (= (to_rep1 (of_rep1 x)) x) :pattern ((to_rep1 (of_rep1 x))) )))

(declare-sort map1 0)

;; "has_bounds"
(declare-fun has_bounds (map1
  Int
  Int) Bool)

(declare-datatypes ()
  ((t (tqtmk (rec__first tinteger_32B)(rec__last tinteger_32B)))))

;; "dynamic_property"
(define-fun dynamic_property ((range_first Int) (range_last Int) (low Int) (high Int)) Bool
  (and
    (in_range low)
    (and
      (in_range high)
      (=> (<= low high) (and (in_range1 low) (in_range1 high))))))

(declare-datatypes ()
  ((us_t (us_tqtmk (elts map1)(rt t)))))

;; "first"
(define-fun first ((a us_t)) Int
  (to_rep (rec__first (rt a))))

;; "last"
(define-fun last ((a us_t)) Int
  (to_rep (rec__last (rt a))))

;; "length"
(define-fun length ((a us_t)) Int
  (ite (<= (first a) (last a)) (+ (- (last a) (first a)) 1) 0))

;; "well_formed"
(define-fun well_formed ((a us_t)) Bool
  (has_bounds
    (elts a)
    (to_rep (rec__first (rt a)))
    (to_rep (rec__last (rt a)))))

(declare-const c us_t)

(declare-const aad us_t)

;; "dynamic_invariant"
(define-fun dynamic_invariant ((temp___expr_254 us_t) (temp___is_init_250 Bool) (temp___skip_constant_251 Bool) (temp___do_toplevel_252 Bool) (temp___do_typ_inv_253 Bool)) Bool
  (and
    (=>
      (not (= temp___skip_constant_251 true))
      (dynamic_property
        0
        2147483647
        (first temp___expr_254)
        (last temp___expr_254)))
    (well_formed temp___expr_254)))

;; "in_range"
(define-fun in_range2 ((x Int)) Bool
  (and (<= (- 9223372036854775808) x) (<= x 9223372036854775807)))

;; "Assume"
(assert (dynamic_invariant c true false true true))

;; "Assume"
(assert (dynamic_invariant aad true false true true))

(declare-const o Bool)

(declare-const o1 Int)

;; "H"
(assert (= o1 (first aad)))

(declare-const firstqtresultqtunused Int)

;; "H"
(assert (= firstqtresultqtunused o1))

(declare-const infix_eqqtresultqtunused Bool)

;; "H"
(assert (= infix_eqqtresultqtunused (ite (= o1 0) true false)))

(declare-const o2 Bool)

(declare-const o3 Int)

(declare-const firstqtresultqtunused1 Int)

(declare-const infix_eqqtresultqtunused1 Bool)

;; "H"
(assert
  (ite (= o1 0)
    (and
      (= o3 (first c))
      (and
        (= firstqtresultqtunused1 o3)
        (and
          (= o2 (ite (= o3 0) true false))
          (= infix_eqqtresultqtunused1 o2))))
    (= o2 false)))

(declare-const o4 Bool)

(declare-const o5 Int)

(declare-const lastqtresultqtunused Int)

(declare-const infix_lsqtresultqtunused Bool)

;; "H"
(assert
  (ite (= o2 true)
    (and
      (= o5 (last aad))
      (and
        (= lastqtresultqtunused o5)
        (and
          (= o4 (ite (< o5 2147483647) true false))
          (= infix_lsqtresultqtunused o4))))
    (= o4 false)))

(declare-const o6 Int)

(declare-const lastqtresultqtunused1 Int)

(declare-const infix_lsqtresultqtunused1 Bool)

;; "H"
(assert
  (ite (= o4 true)
    (and
      (= o6 (last c))
      (and
        (= lastqtresultqtunused1 o6)
        (and
          (= o (ite (< o6 2147483647) true false))
          (= infix_lsqtresultqtunused1 o))))
    (= o false)))

;; "H"
(assert (= o true))

;; "o"
(define-fun o7 () Int
  (length aad))

;; "length'result'unused"
(define-fun lengthqtresultqtunused () Int
  o7)

;; "Ensures"
(assert (in_range2 o7))

;; "range_check_'result'unused"
(define-fun range_check_qtresultqtunused () Int
  o7)

;; "o"
(define-fun o8 () Int
  (length c))

;; "length'result'unused"
(define-fun lengthqtresultqtunused1 () Int
  o8)

;; Goal "def'vc"
;; File "sparknacl-secretbox.adb", line 107, characters 0-0
(assert
  (not (<= (- 9223372036854775808) o8)))

(check-sat)
